n=30;
demand=2;
horizon=30;
est=[7,14,16,0,4,8,23,25,9,2,9,1,2,6,26,16,17,25,8,0,11,26,0,3,4,20,0,7,10,29];
processing_time=[7,10,9,29,11,10,2,3,3,1,14,21,17,11,3,13,4,2,3,23,1,1,10,15,5,2,30,20,5,1];
lct=[15,24,30,29,22,27,25,28,17,22,23,25,29,19,30,30,30,27,22,30,26,28,29,20,16,27,30,30,19,30];
